50

100 5 223
99 30 442
99 22 215
99 1 456
99 29 438
98 26 333
98 24 358
94 1 359
93 3 549
92 21 563
92 26 291
89 17 294
89 22 211
89 14 508
84 12 287
83 7 320
80 22 403
80 19 489
78 6 558
77 11 346
75 10 421
74 15 558
74 0 536
70 18 512
70 11 580
68 1 287
68 21 456
66 7 511
63 16 444
62 3 346
60 0 358
59 3 219
58 3 566
58 13 322
58 10 553
55 14 404
54 6 220
53 13 472
52 5 471
49 8 294
42 7 514
41 5 267
36 11 537
35 2 311
35 11 297
31 6 366
26 4 539
23 2 237
22 6 239
20 6 591
